StudentsNr = 5;
InstructorsNr = 10;
DaysNr = 1;
SlotsPerDay = 10;
RoomNr = 1;
ProgrammNr = 2;
DegreeNr = 1;
RolesNr = 1;
CoursesNr = 3;
InstructorsId = {0, 1, 2, 3, 4, 5, 6, 7, 8, 9};
InstructorsProgramm = [{1}, {0}, {0}, {1}, {1}, {0}, {0}, {1}, {1}, {1}];
InstructorsRoles = [{0}, {0}, {}, {}, {0}, {0}, {0}, {}, {}, {}];
InstructorsAvailability = [|0, 1, 1, 1, 1, 0, 1, 1, 0, 0, |0, 0, 0, 1, 1, 0, 0, 1, 1, 1, |1, 1, 1, 1, 1, 1, 1, 0, 1, 0, |1, 1, 1, 1, 1, 1, 1, 1, 1, 1, |1, 1, 1, 1, 1, 1, 1, 1, 1, 1, |1, 1, 1, 0, 0, 0, 0, 0, 0, 1, |0, 1, 1, 1, 1, 1, 1, 1, 1, 1, |0, 0, 1, 1, 1, 1, 1, 1, 0, 1, |0, 1, 1, 1, 0, 1, 1, 1, 1, 1, |1, 0, 0, 0, 1, 1, 1, 1, 1, 0|];
StudentsId = {0, 1, 2, 3, 4};
StudentsProgramm = [1, 0, 1, 0, 1];
StudentsDegree = [0, 0, 0, 0, 0];
StudentsSupervisorId = [7, 8, 0, 0, 5];
StudentsCourseIds = [{}, {}, {}, {}, {}];
StudentsAvailability = [|1, 1, 1, 1, 1, 1, 1, 1, 1, 1, |0, 1, 1, 1, 1, 1, 1, 1, 1, 0, |0, 1, 1, 1, 1, 1, 1, 1, 1, 0, |0, 1, 1, 1, 1, 1, 1, 1, 1, 1, |0, 0, 1, 1, 1, 1, 1, 1, 1, 1|];
CoursesId = {0, 1, 2};
CoursesInstructorIds = [{1, 2, 5, 6, 8}, {7, 9}, {0, 5, 6, 9}];
